benchmarks/bfuzz0/32241631026999960315461133661981030737.smt2
(set-logic QF_FP)
(declare-const x0 (_ FloatingPoint 11 53))
(declare-const x1 (_ FloatingPoint 11 53))
(declare-const x2 (_ FloatingPoint 11 53))
(declare-const x3 (_ FloatingPoint 11 53))
(declare-const x4 (_ FloatingPoint 11 53))
(declare-const x5 (_ FloatingPoint 11 53))
(declare-const x6 (_ FloatingPoint 11 53))
(declare-const x7 (_ FloatingPoint 11 53))
(declare-const x8 (_ FloatingPoint 11 53))
(declare-const x9 (_ FloatingPoint 11 53))
(declare-const x10 (_ FloatingPoint 11 53))
(declare-const x11 (_ FloatingPoint 11 53))
(declare-const x12 (_ FloatingPoint 11 53))
(declare-const x13 (_ FloatingPoint 11 53))
(declare-const x14 (_ FloatingPoint 11 53))
(declare-const x15 (_ FloatingPoint 11 53))
(declare-const x16 (_ FloatingPoint 11 53))
(declare-const x17 (_ FloatingPoint 11 53))
(declare-const x18 (_ FloatingPoint 11 53))
(declare-const x19 (_ FloatingPoint 11 53))
(declare-const x20 (_ FloatingPoint 11 53))
(declare-const x21 (_ FloatingPoint 11 53))
(declare-const x22 (_ FloatingPoint 11 53))
(assert (fp.geq (fp.neg x8) (fp.div RNE x5 x5)))
(assert (fp.gt (fp.sub RNE x7 x16) (fp.mul RNE x14 x14)))
(assert (fp.gt (fp.div RNE x9 x21) (fp.add RNE x8 x17)))
(assert (fp.eq (fp.add RNE x20 x18) (fp.sub RNE x13 x7)))
(assert (fp.eq (fp.div RNE x20 x7) (fp.add RNE x14 x20)))
(assert (fp.lt (fp.div RNE x14 x15) (fp.add RNE x8 x17)))
(assert (fp.geq (fp.add RNE x3 x17) (fp.neg x22)))
(assert (fp.gt (fp.add RNE x15 x16) (fp.sub RNE x19 x15)))
(assert (fp.gt (fp.neg x7) (fp.neg x15)))
(assert (fp.gt (fp.div RNE x18 x4) (fp.mul RNE x1 x3)))
(assert (fp.leq (fp.sub RNE x16 x10) (fp.div RNE x18 x11)))
(assert (fp.eq (fp.sub RNE x18 x4) (fp.mul RNE x3 x20)))
(assert (fp.gt (fp.neg x8) (fp.mul RNE x2 x16)))
(assert (fp.lt (fp.mul RNE x13 x3) (fp.mul RNE x22 x17)))
(assert (fp.lt (fp.mul RNE x9 x9) (fp.mul RNE x3 x21)))
(check-sat)
