db/data/32241631026999960315461133661981030737.z3.out
-------------------
2500.120699464
